Route #1: 212 8 6 198 202 38 29 17 7 200 41 114 165 163 5 149 159
Route #2: 170 211 190 189 199 11 12 19 210 16 172 50 54 53 164 24 155 154 156 209 206 173 196
Route #3: 144 146 108 142 97 147 101 127 183 90 181 131 185 203 125 126 92 9 18 81
Route #4: 20 13 10 22 21 14 86 2 117 187 132 186 150 130 197 100 85 194 43 184 160 139 3 115
Route #5: 69 67 34 133 80 87 103 102 104 111 110 109 148 116 152 161 180 177 61
Route #6: 77 95 98 99 105 113 122 120 128 141 106 60 136 153 157 169 118 129 140 151 123 74 73
Route #7: 135 171 35 176 42 166 89 178 179 79 167 168 39 121 93 36 59 49 46 32
Route #8: 158 207 47 37 57 58 55 33 188 51 56 84 82 134 119 124 63 72 62 23 25 44 28 30 205
Route #9: 182 94 26 204 4 15 195 174 201 65 107 48 138 191 31 1 112 91 208
Route #10: 64 70 88 76 75 96 52 137 71 162 78 145 27 45 40 83 175 143 66 68 192 193
Cost 81690
Time 215.367
